90 15269778
41 86 73 6 59 20 57 79 27 65 25 12 2 85 19 66 5 77 58 21 36 35 87 78 37 54 60 56 16 26 42 8 1 34 24 3 82 43 10 72 89 67 48 7 62 76 28 68 32 9 88 11 69 90 84 55 74 46 53 23 31 39 52 4 30 47 49 22 17 38 50 70 40 18 44 71 29 63 83 61 14 13 51 64 75 80 45 81 33 15 
